c WARNING: for repeatability, setting FPU to use double precision
d VARIABLES            121252       
d CONSTRAINTS          505143       
c ============================[ Problem Statistics ]=============================
c |                                                                             |
c |  Number of variables:        121252                                         |
c |  Number of clauses:          505143                                         |
c |  Parse time:                   0.08 s                                       |
c |                                                                             |
c ============================[ Search Statistics ]==============================
c | Conflicts |          ORIGINAL         |          LEARNT          | Progress |
c |           |    Vars  Clauses Literals |    Limit  Clauses Lit/Cl |          |
c ===============================================================================
c |       100 |   94019   435901  1061341 |   159830       98     18 | 22.460 % |
c |       250 |   94019   435901  1061341 |   175813      248     32 | 22.460 % |
c |       475 |   94019   435901  1061341 |   193394      473     31 | 22.460 % |
c |       812 |   94019   435751  1060981 |   212734      805     32 | 22.460 % |
c |      1318 |   94017   435751  1060981 |   234007     1309     30 | 22.461 % |
c ===============================================================================
c restarts              : 10
c conflicts             : 1588           (4223 /sec)
c decisions             : 6924           (0.00 % random) (18414 /sec)
c propagations          : 2283051        (6071573 /sec)
c conflict literals     : 44257          (24.64 % deleted)
d RESTARTS             10
d FAILURES             1588         
d NODES                6924         
d BACKTRACKS           6924         
d PROPAGATIONS         2283051      
d NOGOODSIZE           27.87 
d MEMORY               38.00 
d TIME                 0.376023 

s UNSATISFIABLE
